============================[ Problem Statistics ]=============================|                                                                             ||  Number of variables:          4242                                         ||  Number of clauses:           10436                                         ||  Parse time:                   0.82 s                                       ||                                                                             |============================[ Search Statistics ]==============================| Conflicts |          ORIGINAL         |          LEARNT          | Progress ||           |    Vars  Clauses Literals |    Limit  Clauses Lit/Cl |          |===============================================================================|       100 |    1591     6641  1313232 |     2435      100     53 | 62.501 % ||       250 |    1591     6641  1313232 |     2678      250     75 | 62.495 % |===============================================================================restarts              : 4conflicts             : 443            (358 /sec)decisions             : 802            (0.00 % random) (648 /sec)propagations          : 13731          (11100 /sec)conflict literals     : 37434          (94.47 % deleted)CPU time              : 1.237 sSATISFIABLE